####################################################################### 
# 
# This file contains crystal structure data downloaded from the 
# Cambridge Structural Database (CSD) hosted by the Cambridge 
# Crystallographic Data Centre (CCDC).
# 
# Full information about CCDC data access policies and citation 
# guidelines are available at http://www.ccdc.cam.ac.uk/access/V1 
# 
# Audit and citation data items may have been added by the CCDC. 
# Please retain this information to preserve the provenance of 
# this file and to allow appropriate attribution of the data. 
# 
#######################################################################

data_KAGLEJ10
#This CIF has been generated from an entry in the Cambridge Structural Database
_database_code_depnum_ccdc_archive 'CCDC 1192252'
_database_code_CSD               KAGLEJ10
loop_
_citation_id
_citation_doi
_citation_year
1 10.1021/ja00058a027 1993
_audit_creation_method           'Created from the CSD'
_audit_update_record             
;
2023-04-07 downloaded from the CCDC.
;
_database_code_NBS               625180
_chemical_formula_moiety         'C112 H88 Mn12 O48'
_chemical_name_systematic        
Tetra-aqua-dodecakis(\m~3~-oxo)-hexadecakis(\m~2~-benzoato)-tetra-manganese(iv)-octa-manganese(iii)
_chemical_absolute_configuration unk
_diffrn_ambient_temperature      127
_exptl_crystal_density_diffrn    1.476
#These two values have been output from a single CSD field.
_refine_ls_R_factor_gt           0.0954
_refine_ls_wR_factor_gt          0.0954
_diffrn_radiation_probe          x-ray
_symmetry_cell_setting           triclinic
_symmetry_space_group_name_H-M   'P -1'
_symmetry_Int_Tables_number      2
_space_group_name_Hall           '-P 1'
loop_
_symmetry_equiv_pos_site_id
_symmetry_equiv_pos_as_xyz
1 x,y,z
2 -x,-y,-z
_cell_length_a                   27.072(19)
_cell_length_b                   17.046(11)
_cell_length_c                   14.254(8)
_cell_angle_alpha                98.39(3)
_cell_angle_beta                 98.44(4)
_cell_angle_gamma                89.27(4)
_cell_volume                     6436.66
_exptl_crystal_colour            black
_cell_formula_units_Z            2
loop_
_atom_site_label
_atom_site_type_symbol
_atom_site_fract_x
_atom_site_fract_y
_atom_site_fract_z
Mn1 Mn 0.2589(2) 0.7713(3) 0.6567(3)
Mn2 Mn 0.2319(2) 0.7936(3) 0.8424(3)
Mn3 Mn 0.1943(2) 0.6552(3) 0.7206(3)
Mn4 Mn 0.2985(2) 0.6607(3) 0.7778(3)
Mn5 Mn 0.3237(2) 0.8792(3) 0.6042(3)
Mn6 Mn 0.2480(2) 0.9679(3) 0.7487(4)
Mn7 Mn 0.1688(2) 0.9183(3) 0.8885(4)
Mn8 Mn 0.1111(2) 0.7400(3) 0.8652(4)
Mn9 Mn 0.1368(2) 0.5469(3) 0.7897(3)
Mn10 Mn 0.2464(2) 0.4736(3) 0.7542(4)
Mn11 Mn 0.3562(2) 0.5317(3) 0.7113(4)
Mn12 Mn 0.3730(2) 0.6965(3) 0.6109(4)
O1 O 0.1995(8) 0.7702(11) 0.7126(14)
O2 O 0.2923(7) 0.7759(11) 0.7864(13)
O3 O 0.2391(7) 0.6797(11) 0.8348(13)
O4 O 0.2525(7) 0.6574(11) 0.6625(14)
O5 O 0.3200(8) 0.7683(12) 0.6143(14)
O6 O 0.2646(8) 0.8803(11) 0.6612(14)
O7 O 0.2276(8) 0.9000(11) 0.8334(14)
O8 O 0.1668(8) 0.8062(11) 0.8783(14)
O9 O 0.1417(8) 0.6595(12) 0.7908(14)
O10 O 0.1952(8) 0.5468(11) 0.7335(14)
O11 O 0.2962(8) 0.5515(11) 0.7679(14)
O12 O 0.3491(8) 0.6421(12) 0.7036(15)
O13 O 0.1415(8) 0.6949(11) 1.0017(14)
O14 O 0.0766(8) 0.7788(12) 0.7316(15)
O15 O 0.4238(8) 0.7721(12) 0.7213(15)
O16 O 0.3229(8) 0.6262(12) 0.4904(15)
O17 O 0.2253(8) 0.7604(12) 0.5285(14)
O18 O 0.2710(8) 0.8487(11) 0.4712(14)
C1 C 0.2373(14) 0.8028(21) 0.4620(26)
C2 C 0.1950(14) 0.7930(20) 0.3736(25)
C3 C 0.1585(14) 0.7347(21) 0.3627(26)
C4 C 0.1222(16) 0.7302(24) 0.2773(30)
C5 C 0.1277(17) 0.7779(26) 0.2041(32)
C6 C 0.1660(15) 0.8356(22) 0.2218(28)
C7 C 0.1999(14) 0.8427(21) 0.3063(27)
O19 O 0.2653(8) 0.8122(12) 0.9758(14)
O20 O 0.2185(8) 0.9192(12) 1.0237(14)
C8 C 0.2522(16) 0.8711(25) 1.0322(30)
C9 C 0.2844(14) 0.8805(22) 1.1325(26)
C10 C 0.2846(17) 0.9564(25) 1.1867(32)
C11 C 0.3098(17) 0.9701(26) 1.2801(33)
C12 C 0.3318(17) 0.8989(26) 1.3162(31)
C13 C 0.3343(15) 0.8269(23) 1.2636(28)
C14 C 0.3091(15) 0.8164(23) 1.1695(29)
O21 O 0.1474(7) 0.6414(11) 0.6045(14)
O22 O 0.0987(7) 0.5460(11) 0.6389(13)
C15 C 0.1101(14) 0.5946(21) 0.5890(26)
C16 C 0.0736(13) 0.6001(20) 0.4997(24)
C17 C 0.0628(14) 0.6760(21) 0.4703(26)
C18 C 0.0193(16) 0.6734(25) 0.3888(31)
C19 C -0.0026(18) 0.6059(29) 0.3478(34)
C20 C 0.0080(15) 0.5340(24) 0.3698(29)
C21 C 0.0459(14) 0.5339(20) 0.4537(25)
O23 O 0.3433(8) 0.6708(12) 0.8936(14)
O24 O 0.3947(8) 0.5685(12) 0.8542(15)
C22 C 0.3818(14) 0.6266(21) 0.9158(25)
C23 C 0.4089(14) 0.6454(22) 1.0108(27)
C24 C 0.4406(15) 0.5833(22) 1.0471(27)
C25 C 0.4675(15) 0.5963(22) 1.1404(27)
C26 C 0.4613(15) 0.6709(23) 1.1975(28)
C27 C 0.4304(17) 0.7283(26) 1.1623(33)
C28 C 0.4039(16) 0.7158(24) 1.0701(29)
O25 O 0.3214(7) 0.9874(11) 0.5817(13)
O26 O 0.2647(8) 1.0459(11) 0.6667(14)
C29 C 0.2952(15) 1.0444(23) 0.6064(28)
C30 C 0.3016(4) 1.1225(21) 0.5696(26)
C31 C 0.3359(15) 1.1246(22) 0.5095(28)
C32 C 0.3418(15) 1.1974(23) 0.4702(28)
C33 C 0.3099(18) 1.2569(26) 0.4905(33)
C34 C 0.2731(19) 1.2544(28) 0.5490(35)
C35 C 0.2672(16) 1.1800(25) 0.5894(30)
O27 O 0.3203(7) 0.9768(11) 0.8251(13)
O28 O 0.3724(8) 0.9071(12) 0.7413(15)
C36 C 0.3601(13) 0.9442(20) 0.8193(25)
C37 C 0.3950(15) 0.9326(21) 0.9078(27)
C38 C 0.4443(16) 0.9138(24) 0.9054(30)
C39 C 0.4768(17) 0.9062(25) 0.9952(32)
C40 C 0.4576(16) 0.9217(23) 1.0825(29)
C41 C 0.4091(14) 0.9424(21) 1.0857(26)
C42 C 0.3788(16) 0.9490(23) 0.9997(30)
O29 O 0.3843(8) 0.8736(12) 0.5454(15)
O30 O 0.4019(8) 0.7446(12) 0.5127(14)
C43 C 0.4095(12) 0.8209(19) 0.5136(22)
C44 C 0.4516(11) 0.8348(17) 0.4637(20)
C45 C 0.4893(14) 0.7759(20) 0.4462(25)
C46 C 0.5296(16) 0.7913(25) 0.4014(30)
C47 C 0.5328(14) 0.8705(22) 0.3768(26)
C48 C 0.5011(14) 0.9275(21) 0.3939(25)
C49 C 0.4605(13) 0.9121(20) 0.4359(25)
O31 O 0.2333(8) 1.0658(12) 0.8343(14)
O32 O 0.1705(8) 1.0331(13) 0.9075(16)
C50 C 0.2001(12) 1.0823(18) 0.8861(22)
C51 C 0.2018(12) 1.1663(19) 0.9366(23)
C52 C 0.1811(13) 1.1819(20) 1.0248(25)
C53 C 0.1844(13) 1.2615(20) 1.0751(24)
C54 C 0.2057(12) 1.3192(19) 1.0301(23)
C55 C 0.2256(13) 1.3054(20) 0.9495(25)
C56 C 0.2229(12) 1.2269(19) 0.8970(23)
O33 O 0.1742(8) 0.9705(11) 0.6734(14)
O34 O 0.1191(7) 0.9185(11) 0.7470(14)
C57 C 0.1333(12) 0.9412(17) 0.6734(21)
C58 C 0.0970(12) 0.9281(17) 0.5832(21)
C59 C 0.1176(12) 0.9338(19) 0.5019(23)
C60 C 0.0848(15) 0.9227(21) 0.4106(27)
C61 C 0.0340(14) 0.9069(21) 0.4037(26)
C62 C 0.0159(13) 0.9003(19) 0.4935(25)
C63 C 0.0491(14) 0.9113(20) 0.5796(25)
O35 O 0.1158(8) 0.9341(12) 0.9678(14)
O36 O 0.0749(9) 0.8173(13) 0.9431(16)
C64 C 0.0815(12) 0.8909(19) 0.9801(22)
C65 C 0.0458(12) 0.9211(18) 1.0461(22)
C66 C 0.0632(14) 0.9817(21) 1.1168(27)
C67 C 0.0292(13) 1.0152(20) 1.1838(24)
C68 C -0.0196(14) 0.9866(21) 1.1682(25)
C69 C -0.0371(14) 0.9254(21) 1.0908(26)
C70 C -0.0013(13) 0.8926(19) 1.0303(24)
O37 O 0.0505(8) 0.6753(12) 0.8627(15)
O38 O 0.0726(7) 0.5485(11) 0.8397(13)
C71 C 0.0451(12) 0.6044(19) 0.8617(21)
C72 C -0.0030(11) 0.5846(17) 0.8924(20)
C73 C -0.0333(13) 0.6395(19) 0.9341(23)
C74 C -0.0766(13) 0.6204(20) 0.9667(24)
C75 C -0.0920(13) 0.5416(19) 0.9560(23)
C76 C -0.0630(12) 0.4818(18) 0.9111(23)
C77 C -0.0183(13) 0.5014(19) 0.8770(23)
O39 O 0.1778(7) 0.5554(11) 0.9374(14)
O40 O 0.2440(7) 0.4874(11) 0.9030(13)
C78 C 0.2216(11) 0.5348(16) 0.9593(20)
C79 C 0.2487(13) 0.5577(18) 1.0613(23)
C80 C 0.2218(12) 0.5961(18) 1.1317(23)
C81 C 0.2518(14) 0.6234(20) 1.2224(24)
C82 C 0.3030(14) 0.6149(21) 1.2380(26)
C83 C 0.3291(14) 0.5770(20) 1.1649(26)
C84 C 0.2985(14) 0.5488(21) 1.0696(26)
O41 O 0.1979(8) 0.3818(12) 0.7299(15)
O42 O 0.1278(8) 0.4319(11) 0.7777(14)
C85 C 0.1539(13) 0.3777(19) 0.7458(23)
C86 C 0.1307(12) 0.2956(17) 0.7341(21)
C87 C 0.1532(14) 0.2373(22) 0.6724(27)
C88 C 0.1346(14) 0.1578(22) 0.6596(27)
C89 C 0.0940(14) 0.1429(21) 0.7107(26)
C90 C 0.0741(13) 0.2008(21) 0.7684(25)
C91 C 0.0941(14) 0.2814(21) 0.7802(26)
O43 O 0.2937(8) 0.3900(12) 0.7793(15)
O44 O 0.3663(8) 0.4241(12) 0.7385(15)
C92 C 0.3377(12) 0.3770(18) 0.7727(22)
C93 C 0.3607(13) 0.3026(19) 0.8011(23)
C94 C 0.3285(14) 0.2414(21) 0.8044(25)
C95 C 0.3527(16) 0.1693(24) 0.8393(29)
C96 C 0.4046(14) 0.1649(21) 0.8596(26)
C97 C 0.4370(15) 0.2345(22) 0.8597(27)
C98 C 0.4143(15) 0.3016(23) 0.8233(28)
O45 O 0.3147(8) 0.4963(12) 0.5639(15)
O46 O 0.2485(8) 0.4418(12) 0.6058(15)
C99 C 0.2709(12) 0.4690(18) 0.5457(22)
C100 C 0.2443(12) 0.4637(18) 0.4478(22)
C101 C 0.2706(14) 0.4443(21) 0.3668(27)
C102 C 0.2402(15) 0.4333(21) 0.2741(27)
C103 C 0.1915(17) 0.4439(24) 0.2616(30)
C104 C 0.1647(17) 0.4664(25) 0.3387(33)
C105 C 0.1932(15) 0.4757(21) 0.4366(27)
O47 O 0.4289(8) 0.6294(11) 0.6007(14)
O48 O 0.4198(8) 0.5168(12) 0.6639(15)
C106 C 0.4444(13) 0.5642(20) 0.6259(23)
C107 C 0.4981(13) 0.5395(19) 0.6215(23)
C108 C 0.5143(13) 0.4622(20) 0.6303(24)
C109 C 0.5621(14) 0.4442(20) 0.6249(24)
C110 C 0.5973(14) 0.4970(22) 0.6049(26)
C111 C 0.5812(14) 0.5772(21) 0.5964(25)
C112 C 0.5316(14) 0.5988(20) 0.6058(25)

#END
